p cnf 79 180
a 8 2 15 9 3 16 1 7 14 21 28 32 47 37 43 52 56 0
d 60 8 9 0
d 67 32 47 0
d 38 2 3 0
d 48 37 43 0
d 33 15 16 0
d 71 52 56 0
d 4 2 3 0
d 5 1 2 3 0
d 6 1 2 3 0
d 10 8 9 0
d 11 7 8 9 0
d 12 7 8 9 0
d 13 1 2 3 7 8 9 0
d 17 15 16 0
d 18 14 15 16 0
d 19 14 15 16 0
d 20 1 2 3 7 8 9 14 15 16 0
d 22 1 7 0
d 23 2 3 0
d 24 1 7 2 3 0
d 25 21 1 7 2 3 0
d 26 21 1 7 2 3 0
d 27 1 2 3 7 8 9 14 15 16 21 0
d 29 28 8 9 0
d 30 28 8 9 0
d 31 1 2 3 7 8 9 14 15 16 21 28 0
d 34 32 15 16 0
d 35 32 15 16 0
d 36 1 2 3 7 8 9 14 15 16 21 28 32 0
d 39 2 3 28 0
d 40 37 2 3 28 0
d 41 37 2 3 28 0
d 42 1 2 3 7 8 9 14 15 16 21 28 32 37 0
d 44 43 2 3 0
d 45 43 2 3 0
d 46 1 2 3 7 8 9 14 15 16 21 28 32 37 43 0
d 49 47 37 43 0
d 50 47 37 43 0
d 51 1 2 3 7 8 9 14 15 16 21 28 32 37 43 47 0
d 53 52 15 16 0
d 54 52 15 16 0
d 55 1 2 3 7 8 9 14 15 16 21 28 32 37 43 47 52 0
d 57 56 37 43 0
d 58 56 37 43 0
d 59 1 2 3 7 8 9 14 15 16 21 28 32 37 43 47 52 56 0
d 61 8 9 0
d 62 8 9 0
d 63 2 3 28 0
d 64 1 7 0
d 65 2 3 28 1 7 0
d 66 8 9 2 3 28 1 7 0
d 68 14 21 0
d 69 32 47 14 21 0
d 70 8 9 2 3 28 1 7 32 47 14 21 0
d 72 15 16 0
d 73 52 56 15 16 0
d 74 14 21 0
d 75 15 16 0
d 76 14 21 15 16 0
d 77 52 56 15 16 14 21 0
d 78 8 9 2 3 28 1 7 32 47 14 21 52 56 15 16 0
d 79 1 2 3 7 8 9 14 15 16 21 28 32 37 43 47 52 56 0
4 -2 3 0
4 2 -3 0
-4 -2 -3 0
-4 2 3 0
5 -1 -4 0
5 1 4 0
-5 -1 4 0
-5 1 -4 0
6 5 0
-6 -5 0
10 -8 9 0
10 8 -9 0
-10 -8 -9 0
-10 8 9 0
11 -7 -10 0
11 7 10 0
-11 -7 10 0
-11 7 -10 0
12 11 0
-12 -11 0
13 -6 0
13 -12 0
-13 6 12 0
17 -15 16 0
17 15 -16 0
-17 -15 -16 0
-17 15 16 0
18 -14 -17 0
18 14 17 0
-18 -14 17 0
-18 14 -17 0
19 18 0
-19 -18 0
20 -13 0
20 -19 0
-20 13 19 0
-22 1 0
-22 7 0
22 -1 -7 0
-23 2 0
-23 3 0
23 -2 -3 0
24 -22 0
24 -23 0
-24 22 23 0
25 -21 -24 0
25 21 24 0
-25 -21 24 0
-25 21 -24 0
26 25 0
-26 -25 0
27 -20 0
27 -26 0
-27 20 26 0
29 -28 -10 0
29 28 10 0
-29 -28 10 0
-29 28 -10 0
30 29 0
-30 -29 0
31 -27 0
31 -30 0
-31 27 30 0
34 -32 -33 0
34 32 33 0
-34 -32 33 0
-34 32 -33 0
35 34 0
-35 -34 0
36 -31 0
36 -35 0
-36 31 35 0
-39 38 0
-39 28 0
39 -38 -28 0
40 -37 -39 0
40 37 39 0
-40 -37 39 0
-40 37 -39 0
41 40 0
-41 -40 0
42 -36 0
42 -41 0
-42 36 41 0
44 -43 -23 0
44 43 23 0
-44 -43 23 0
-44 43 -23 0
45 44 0
-45 -44 0
46 -42 0
46 -45 0
-46 42 45 0
49 -47 -48 0
49 47 48 0
-49 -47 48 0
-49 47 -48 0
50 49 0
-50 -49 0
51 -46 0
51 -50 0
-51 46 50 0
53 -52 -33 0
53 52 33 0
-53 -52 33 0
-53 52 -33 0
54 53 0
-54 -53 0
55 -51 0
55 -54 0
-55 51 54 0
57 -56 -48 0
57 56 48 0
-57 -56 48 0
-57 56 -48 0
58 57 0
-58 -57 0
59 -55 0
59 -58 0
-59 55 58 0
-61 8 0
-61 9 0
61 -8 -9 0
62 -60 -61 0
62 60 61 0
-62 -60 61 0
-62 60 -61 0
63 -38 28 0
63 38 -28 0
-63 -38 -28 0
-63 38 28 0
64 -1 7 0
64 1 -7 0
-64 -1 -7 0
-64 1 7 0
65 -63 -64 0
65 63 64 0
-65 -63 64 0
-65 63 -64 0
-66 62 0
-66 65 0
66 -62 -65 0
68 -14 21 0
68 14 -21 0
-68 -14 -21 0
-68 14 21 0
69 -67 -68 0
69 67 68 0
-69 -67 68 0
-69 67 -68 0
-70 66 0
-70 69 0
70 -66 -69 0
72 -15 -16 0
72 15 16 0
-72 -15 16 0
-72 15 -16 0
73 -71 0
73 -72 0
-73 71 72 0
-74 14 0
-74 21 0
74 -14 -21 0
-75 15 0
-75 16 0
75 -15 -16 0
76 -74 0
76 -75 0
-76 74 75 0
77 -73 -76 0
77 73 76 0
-77 -73 76 0
-77 73 -76 0
-78 70 0
-78 77 0
78 -70 -77 0
79 -59 0
79 -78 0
-79 59 78 0
79 0
